; SWAP3 POP SWAP3 POP SWAP1 SWAP2 => SWAP4 POP SWAP1 SWAP2 POP
(set-option :produce-proofs true)
; 
(set-info :status unknown)
(declare-fun storage_t ((_ BitVec 256) (_ BitVec 256) (_ BitVec 256) (_ BitVec 256) (_ BitVec 256) Int (_ BitVec 256)) (_ BitVec 256))
(declare-fun storage_s ((_ BitVec 256) (_ BitVec 256) (_ BitVec 256) (_ BitVec 256) (_ BitVec 256) Int (_ BitVec 256)) (_ BitVec 256))
(declare-fun exc_halt_t (Int) Bool)
(declare-fun exc_halt_s (Int) Bool)
(declare-fun sc_t (Int) (_ BitVec 6))
(declare-fun stack_t ((_ BitVec 256) (_ BitVec 256) (_ BitVec 256) (_ BitVec 256) (_ BitVec 256) Int (_ BitVec 6)) (_ BitVec 256))
(declare-fun stack_s ((_ BitVec 256) (_ BitVec 256) (_ BitVec 256) (_ BitVec 256) (_ BitVec 256) Int (_ BitVec 6)) (_ BitVec 256))
(declare-fun sc_s (Int) (_ BitVec 6))
(declare-fun used_gas_t ((_ BitVec 256) (_ BitVec 256) (_ BitVec 256) (_ BitVec 256) (_ BitVec 256) Int) Int)
(declare-fun used_gas_s ((_ BitVec 256) (_ BitVec 256) (_ BitVec 256) (_ BitVec 256) (_ BitVec 256) Int) Int)
(assert
 (exists ((x_0 (_ BitVec 256)) (x_1 (_ BitVec 256)) (x_2 (_ BitVec 256)) (x_3 (_ BitVec 256)) (x_4 (_ BitVec 256)) )(let (($x634 (forall ((w (_ BitVec 256)) )(let ((?x10349 (storage_t x_0 x_1 x_2 x_3 x_4 5 w)))
 (let ((?x9072 (storage_s x_0 x_1 x_2 x_3 x_4 6 w)))
 (= ?x9072 ?x10349))))
 ))
 (let (($x886 (exc_halt_t 5)))
 (let (($x772 (exc_halt_s 6)))
 (let (($x889 (= $x772 $x886)))
 (let (($x6339 (forall ((n (_ BitVec 6)) )(let ((?x1150 (stack_t x_0 x_1 x_2 x_3 x_4 5 n)))
 (let ((?x9708 (stack_s x_0 x_1 x_2 x_3 x_4 6 n)))
 (let (($x2575 (= ?x9708 ?x1150)))
 (or $x2575 (bvsle (sc_t 5) n))))))
 ))
 (let ((?x919 (sc_t 5)))
 (let ((?x926 (sc_s 6)))
 (let (($x929 (= ?x926 ?x919)))
 (let ((?x4210 (used_gas_t x_0 x_1 x_2 x_3 x_4 0)))
 (let ((?x5127 (used_gas_s x_0 x_1 x_2 x_3 x_4 0)))
 (let (($x10048 (= ?x5127 ?x4210)))
 (let (($x6131 (forall ((w (_ BitVec 256)) )(let ((?x9269 (storage_t x_0 x_1 x_2 x_3 x_4 0 w)))
 (let ((?x10077 (storage_s x_0 x_1 x_2 x_3 x_4 0 w)))
 (= ?x10077 ?x9269))))
 ))
 (let (($x56 (exc_halt_t 0)))
 (let (($x57 (exc_halt_s 0)))
 (let (($x58 (= $x57 $x56)))
 (let (($x3685 (forall ((n (_ BitVec 6)) )(let ((?x9773 (stack_t x_0 x_1 x_2 x_3 x_4 0 n)))
 (let ((?x9477 (stack_s x_0 x_1 x_2 x_3 x_4 0 n)))
 (let (($x940 (= ?x9477 ?x9773)))
 (or (bvsle (sc_t 0) n) $x940)))))
 ))
 (let ((?x63 (sc_t 0)))
 (let ((?x72 (sc_s 0)))
 (let (($x73 (= ?x72 ?x63)))
 (let (($x3652 (= $x886 (or (exc_halt_t 4) (not (bvsle (_ bv0 6) (bvadd (_ bv63 6) (sc_t 4))))))))
 (let (($x8676 (forall ((w (_ BitVec 256)) )(let ((?x11602 (storage_t x_0 x_1 x_2 x_3 x_4 4 w)))
 (let ((?x10349 (storage_t x_0 x_1 x_2 x_3 x_4 5 w)))
 (= ?x10349 ?x11602))))
 ))
 (let (($x8456 (forall ((n (_ BitVec 6)) )(let ((?x2623 (stack_t x_0 x_1 x_2 x_3 x_4 4 n)))
 (let ((?x1150 (stack_t x_0 x_1 x_2 x_3 x_4 5 n)))
 (or (= ?x1150 ?x2623) (bvsle (bvadd (_ bv63 6) (sc_t 4)) n)))))
 ))
 (let (($x3583 (= (used_gas_t x_0 x_1 x_2 x_3 x_4 5) (+ 2 (used_gas_t x_0 x_1 x_2 x_3 x_4 4)))))
 (let (($x3723 (exc_halt_t 4)))
 (let (($x10160 (= $x3723 (or (exc_halt_t 3) (not (bvsle (_ bv0 6) (bvadd (_ bv61 6) (sc_t 3))))))))
 (let (($x4969 (forall ((w (_ BitVec 256)) )(let ((?x3329 (storage_t x_0 x_1 x_2 x_3 x_4 3 w)))
 (let ((?x11602 (storage_t x_0 x_1 x_2 x_3 x_4 4 w)))
 (= ?x11602 ?x3329))))
 ))
 (let (($x10458 (forall ((n (_ BitVec 6)) )(let ((?x6188 (stack_t x_0 x_1 x_2 x_3 x_4 3 n)))
 (let ((?x2623 (stack_t x_0 x_1 x_2 x_3 x_4 4 n)))
 (or (= ?x2623 ?x6188) (bvsle (bvadd (_ bv61 6) (sc_t 3)) n)))))
 ))
 (let ((?x9027 (used_gas_t x_0 x_1 x_2 x_3 x_4 4)))
 (let ((?x8093 (stack_t x_0 x_1 x_2 x_3 x_4 3 (bvadd (_ bv62 6) (sc_t 3)))))
 (let (($x2041 (= (stack_t x_0 x_1 x_2 x_3 x_4 4 (bvadd (_ bv62 6) (sc_t 4))) ?x8093)))
 (let ((?x9301 (stack_t x_0 x_1 x_2 x_3 x_4 3 (bvadd (_ bv63 6) (sc_t 3)))))
 (let (($x6103 (= (stack_t x_0 x_1 x_2 x_3 x_4 4 (bvadd (_ bv61 6) (sc_t 4))) ?x9301)))
 (let (($x10579 (= (stack_t x_0 x_1 x_2 x_3 x_4 4 (bvadd (_ bv63 6) (sc_t 4))) (stack_t x_0 x_1 x_2 x_3 x_4 3 (bvadd (_ bv61 6) (sc_t 3))))))
 (let (($x1941 (exc_halt_t 3)))
 (let (($x10519 (= $x1941 (or (exc_halt_t 2) (not (bvsle (_ bv0 6) (bvadd (_ bv62 6) (sc_t 2))))))))
 (let (($x10770 (forall ((w (_ BitVec 256)) )(let ((?x9567 (storage_t x_0 x_1 x_2 x_3 x_4 2 w)))
 (let ((?x3329 (storage_t x_0 x_1 x_2 x_3 x_4 3 w)))
 (= ?x3329 ?x9567))))
 ))
 (let (($x2467 (forall ((n (_ BitVec 6)) )(let ((?x5599 (stack_t x_0 x_1 x_2 x_3 x_4 2 n)))
 (let ((?x6188 (stack_t x_0 x_1 x_2 x_3 x_4 3 n)))
 (or (bvsle (bvadd (_ bv62 6) (sc_t 2)) n) (= ?x6188 ?x5599)))))
 ))
 (let ((?x2590 (used_gas_t x_0 x_1 x_2 x_3 x_4 3)))
 (let (($x3414 (= ?x8093 (stack_t x_0 x_1 x_2 x_3 x_4 2 (bvadd (_ bv63 6) (sc_t 2))))))
 (let (($x3930 (= ?x9301 (stack_t x_0 x_1 x_2 x_3 x_4 2 (bvadd (_ bv62 6) (sc_t 2))))))
 (let (($x903 (exc_halt_t 2)))
 (let (($x4455 (= $x903 (or (exc_halt_t 1) (not (bvsle (_ bv0 6) (bvadd (_ bv63 6) (sc_t 1))))))))
 (let (($x10650 (forall ((w (_ BitVec 256)) )(let ((?x7350 (storage_t x_0 x_1 x_2 x_3 x_4 1 w)))
 (let ((?x9567 (storage_t x_0 x_1 x_2 x_3 x_4 2 w)))
 (= ?x9567 ?x7350))))
 ))
 (let (($x9413 (forall ((n (_ BitVec 6)) )(let ((?x6277 (stack_t x_0 x_1 x_2 x_3 x_4 1 n)))
 (let ((?x5599 (stack_t x_0 x_1 x_2 x_3 x_4 2 n)))
 (or (bvsle (bvadd (_ bv63 6) (sc_t 1)) n) (= ?x5599 ?x6277)))))
 ))
 (let ((?x4396 (used_gas_t x_0 x_1 x_2 x_3 x_4 2)))
 (let (($x6917 (forall ((w (_ BitVec 256)) )(let ((?x9269 (storage_t x_0 x_1 x_2 x_3 x_4 0 w)))
 (let ((?x7350 (storage_t x_0 x_1 x_2 x_3 x_4 1 w)))
 (= ?x7350 ?x9269))))
 ))
 (let (($x7531 (forall ((n (_ BitVec 6)) )(let ((?x9773 (stack_t x_0 x_1 x_2 x_3 x_4 0 n)))
 (let ((?x6277 (stack_t x_0 x_1 x_2 x_3 x_4 1 n)))
 (or (= ?x6277 ?x9773) (bvsle (bvadd (_ bv59 6) (sc_t 0)) n)))))
 ))
 (let (($x10639 (= (stack_t x_0 x_1 x_2 x_3 x_4 1 (bvadd (_ bv62 6) (sc_t 1))) (stack_t x_0 x_1 x_2 x_3 x_4 0 (bvadd (_ bv62 6) ?x63)))))
 (let (($x9151 (= (stack_t x_0 x_1 x_2 x_3 x_4 1 (bvadd (_ bv61 6) (sc_t 1))) (stack_t x_0 x_1 x_2 x_3 x_4 0 (bvadd (_ bv61 6) ?x63)))))
 (let (($x10338 (= (stack_t x_0 x_1 x_2 x_3 x_4 1 (bvadd (_ bv60 6) (sc_t 1))) (stack_t x_0 x_1 x_2 x_3 x_4 0 (bvadd (_ bv60 6) ?x63)))))
 (let (($x10747 (= (stack_t x_0 x_1 x_2 x_3 x_4 1 (bvadd (_ bv59 6) (sc_t 1))) (stack_t x_0 x_1 x_2 x_3 x_4 0 (bvadd (_ bv63 6) ?x63)))))
 (let (($x7365 (= (stack_t x_0 x_1 x_2 x_3 x_4 1 (bvadd (_ bv63 6) (sc_t 1))) (stack_t x_0 x_1 x_2 x_3 x_4 0 (bvadd (_ bv59 6) ?x63)))))
 (let (($x3641 (= $x772 (or (exc_halt_s 5) (not (bvsle (_ bv0 6) (bvadd (_ bv61 6) (sc_s 5))))))))
 (let (($x1935 (forall ((w (_ BitVec 256)) )(let ((?x2461 (storage_s x_0 x_1 x_2 x_3 x_4 5 w)))
 (let ((?x9072 (storage_s x_0 x_1 x_2 x_3 x_4 6 w)))
 (= ?x9072 ?x2461))))
 ))
 (let (($x1477 (forall ((n (_ BitVec 6)) )(let ((?x354 (stack_s x_0 x_1 x_2 x_3 x_4 5 n)))
 (let ((?x9708 (stack_s x_0 x_1 x_2 x_3 x_4 6 n)))
 (or (= ?x9708 ?x354) (bvsle (bvadd (_ bv61 6) (sc_s 5)) n)))))
 ))
 (let (($x9545 (= (used_gas_s x_0 x_1 x_2 x_3 x_4 6) (+ 3 (used_gas_s x_0 x_1 x_2 x_3 x_4 5)))))
 (let ((?x6694 (stack_s x_0 x_1 x_2 x_3 x_4 5 (bvadd (_ bv62 6) (sc_s 5)))))
 (let ((?x6586 (stack_s x_0 x_1 x_2 x_3 x_4 5 (bvadd (_ bv63 6) (sc_s 5)))))
 (let (($x7513 (= (stack_s x_0 x_1 x_2 x_3 x_4 6 (bvadd (_ bv63 6) ?x926)) (stack_s x_0 x_1 x_2 x_3 x_4 5 (bvadd (_ bv61 6) (sc_s 5))))))
 (let (($x3979 (exc_halt_s 5)))
 (let (($x810 (= $x3979 (or (exc_halt_s 4) (not (bvsle (_ bv0 6) (bvadd (_ bv62 6) (sc_s 4))))))))
 (let (($x4693 (forall ((w (_ BitVec 256)) )(let ((?x4486 (storage_s x_0 x_1 x_2 x_3 x_4 4 w)))
 (let ((?x2461 (storage_s x_0 x_1 x_2 x_3 x_4 5 w)))
 (= ?x2461 ?x4486))))
 ))
 (let (($x9049 (forall ((n (_ BitVec 6)) )(let ((?x1052 (stack_s x_0 x_1 x_2 x_3 x_4 4 n)))
 (let ((?x354 (stack_s x_0 x_1 x_2 x_3 x_4 5 n)))
 (or (bvsle (bvadd (_ bv62 6) (sc_s 4)) n) (= ?x354 ?x1052)))))
 ))
 (let ((?x6382 (used_gas_s x_0 x_1 x_2 x_3 x_4 5)))
 (let (($x5975 (= ?x6694 (stack_s x_0 x_1 x_2 x_3 x_4 4 (bvadd (_ bv63 6) (sc_s 4))))))
 (let (($x3211 (= ?x6586 (stack_s x_0 x_1 x_2 x_3 x_4 4 (bvadd (_ bv62 6) (sc_s 4))))))
 (let (($x64 (exc_halt_s 4)))
 (let (($x2389 (= $x64 (or (exc_halt_s 3) (not (bvsle (_ bv0 6) (bvadd (_ bv63 6) (sc_s 3))))))))
 (let (($x10744 (forall ((w (_ BitVec 256)) )(let ((?x1927 (storage_s x_0 x_1 x_2 x_3 x_4 3 w)))
 (let ((?x4486 (storage_s x_0 x_1 x_2 x_3 x_4 4 w)))
 (= ?x4486 ?x1927))))
 ))
 (let (($x8706 (forall ((n (_ BitVec 6)) )(let ((?x5606 (stack_s x_0 x_1 x_2 x_3 x_4 3 n)))
 (let ((?x1052 (stack_s x_0 x_1 x_2 x_3 x_4 4 n)))
 (or (= ?x1052 ?x5606) (bvsle (bvadd (_ bv63 6) (sc_s 3)) n)))))
 ))
 (let ((?x42 (used_gas_s x_0 x_1 x_2 x_3 x_4 4)))
 (let (($x292 (exc_halt_s 3)))
 (let (($x10898 (= $x292 (or (exc_halt_s 2) (not (bvsle (_ bv0 6) (bvadd (_ bv60 6) (sc_s 2))))))))
 (let (($x7127 (forall ((w (_ BitVec 256)) )(let ((?x5813 (storage_s x_0 x_1 x_2 x_3 x_4 2 w)))
 (let ((?x1927 (storage_s x_0 x_1 x_2 x_3 x_4 3 w)))
 (= ?x1927 ?x5813))))
 ))
 (let (($x9634 (forall ((n (_ BitVec 6)) )(let ((?x2606 (stack_s x_0 x_1 x_2 x_3 x_4 2 n)))
 (let ((?x5606 (stack_s x_0 x_1 x_2 x_3 x_4 3 n)))
 (or (bvsle (bvadd (_ bv60 6) (sc_s 2)) n) (= ?x5606 ?x2606)))))
 ))
 (let ((?x10727 (used_gas_s x_0 x_1 x_2 x_3 x_4 3)))
 (let (($x8574 (= (stack_s x_0 x_1 x_2 x_3 x_4 3 (bvadd (_ bv62 6) (sc_s 3))) (stack_s x_0 x_1 x_2 x_3 x_4 2 (bvadd (_ bv62 6) (sc_s 2))))))
 (let (($x1809 (= (stack_s x_0 x_1 x_2 x_3 x_4 3 (bvadd (_ bv61 6) (sc_s 3))) (stack_s x_0 x_1 x_2 x_3 x_4 2 (bvadd (_ bv61 6) (sc_s 2))))))
 (let (($x8689 (= (stack_s x_0 x_1 x_2 x_3 x_4 3 (bvadd (_ bv60 6) (sc_s 3))) (stack_s x_0 x_1 x_2 x_3 x_4 2 (bvadd (_ bv63 6) (sc_s 2))))))
 (let (($x5206 (= (stack_s x_0 x_1 x_2 x_3 x_4 3 (bvadd (_ bv63 6) (sc_s 3))) (stack_s x_0 x_1 x_2 x_3 x_4 2 (bvadd (_ bv60 6) (sc_s 2))))))
 (let (($x247 (exc_halt_s 2)))
 (let (($x10621 (= $x247 (or (exc_halt_s 1) (not (bvsle (_ bv0 6) (bvadd (_ bv63 6) (sc_s 1))))))))
 (let (($x1526 (forall ((w (_ BitVec 256)) )(let ((?x3188 (storage_s x_0 x_1 x_2 x_3 x_4 1 w)))
 (let ((?x5813 (storage_s x_0 x_1 x_2 x_3 x_4 2 w)))
 (= ?x5813 ?x3188))))
 ))
 (let (($x6326 (forall ((n (_ BitVec 6)) )(let ((?x5210 (stack_s x_0 x_1 x_2 x_3 x_4 1 n)))
 (let ((?x2606 (stack_s x_0 x_1 x_2 x_3 x_4 2 n)))
 (or (= ?x2606 ?x5210) (bvsle (bvadd (_ bv63 6) (sc_s 1)) n)))))
 ))
 (let ((?x93 (used_gas_s x_0 x_1 x_2 x_3 x_4 2)))
 (let (($x8650 (forall ((w (_ BitVec 256)) )(let ((?x10077 (storage_s x_0 x_1 x_2 x_3 x_4 0 w)))
 (let ((?x3188 (storage_s x_0 x_1 x_2 x_3 x_4 1 w)))
 (= ?x3188 ?x10077))))
 ))
 (let (($x8448 (forall ((n (_ BitVec 6)) )(let ((?x9477 (stack_s x_0 x_1 x_2 x_3 x_4 0 n)))
 (let ((?x5210 (stack_s x_0 x_1 x_2 x_3 x_4 1 n)))
 (or (= ?x5210 ?x9477) (bvsle (bvadd (_ bv60 6) (sc_s 0)) n)))))
 ))
 (let (($x8983 (= (stack_s x_0 x_1 x_2 x_3 x_4 1 (bvadd (_ bv62 6) (sc_s 1))) (stack_s x_0 x_1 x_2 x_3 x_4 0 (bvadd (_ bv62 6) ?x72)))))
 (let (($x3069 (= (stack_s x_0 x_1 x_2 x_3 x_4 1 (bvadd (_ bv61 6) (sc_s 1))) (stack_s x_0 x_1 x_2 x_3 x_4 0 (bvadd (_ bv61 6) ?x72)))))
 (let (($x10967 (= (stack_s x_0 x_1 x_2 x_3 x_4 1 (bvadd (_ bv60 6) (sc_s 1))) (stack_s x_0 x_1 x_2 x_3 x_4 0 (bvadd (_ bv63 6) ?x72)))))
 (let (($x7336 (= (stack_s x_0 x_1 x_2 x_3 x_4 1 (bvadd (_ bv63 6) (sc_s 1))) (stack_s x_0 x_1 x_2 x_3 x_4 0 (bvadd (_ bv60 6) ?x72)))))
 (let (($x5949 (forall ((w (_ BitVec 256)) )(let ((?x10077 (storage_s x_0 x_1 x_2 x_3 x_4 0 w)))
 (= ?x10077 (_ bv0 256))))
 ))
 (let (($x7755 (= ?x5127 0)))
 (let (($x4447 (= (stack_s x_0 x_1 x_2 x_3 x_4 0 (_ bv4 6)) x_4)))
 (let (($x5534 (= (stack_s x_0 x_1 x_2 x_3 x_4 0 (_ bv3 6)) x_3)))
 (let (($x8290 (= (stack_s x_0 x_1 x_2 x_3 x_4 0 (_ bv2 6)) x_2)))
 (let (($x1332 (= (stack_s x_0 x_1 x_2 x_3 x_4 0 (_ bv1 6)) x_1)))
 (let (($x5379 (= (stack_s x_0 x_1 x_2 x_3 x_4 0 (_ bv0 6)) x_0)))
 (let (($x8002 (= ?x72 (_ bv5 6))))
 (and $x8002 $x5379 $x1332 $x8290 $x5534 $x4447 (not $x57) $x7755 $x5949 $x7336 $x10967 $x3069 $x8983 (= (used_gas_s x_0 x_1 x_2 x_3 x_4 1) (+ 3 ?x5127)) (= (sc_s 1) ?x72) $x8448 $x8650 (= (exc_halt_s 1) (or $x57 (not (bvsle (_ bv0 6) (bvadd (_ bv60 6) ?x72))))) (= ?x93 (+ 2 (used_gas_s x_0 x_1 x_2 x_3 x_4 1))) (= (sc_s 2) (bvadd (_ bv63 6) (sc_s 1))) $x6326 $x1526 $x10621 $x5206 $x8689 $x1809 $x8574 (= ?x10727 (+ 3 ?x93)) (= (sc_s 3) (sc_s 2)) $x9634 $x7127 $x10898 (= ?x42 (+ 2 ?x10727)) (= (sc_s 4) (bvadd (_ bv63 6) (sc_s 3))) $x8706 $x10744 $x2389 $x3211 $x5975 (= ?x6382 (+ 3 ?x42)) (= (sc_s 5) (sc_s 4)) $x9049 $x4693 $x810 $x7513 (= (stack_s x_0 x_1 x_2 x_3 x_4 6 (bvadd (_ bv61 6) ?x926)) ?x6586) (= (stack_s x_0 x_1 x_2 x_3 x_4 6 (bvadd (_ bv62 6) ?x926)) ?x6694) $x9545 (= ?x926 (sc_s 5)) $x1477 $x1935 $x3641 $x7365 $x10747 $x10338 $x9151 $x10639 (= (used_gas_t x_0 x_1 x_2 x_3 x_4 1) (+ 3 ?x4210)) (= (sc_t 1) ?x63) $x7531 $x6917 (= (exc_halt_t 1) (or $x56 (not (bvsle (_ bv0 6) (bvadd (_ bv59 6) ?x63))))) (= ?x4396 (+ 2 (used_gas_t x_0 x_1 x_2 x_3 x_4 1))) (= (sc_t 2) (bvadd (_ bv63 6) (sc_t 1))) $x9413 $x10650 $x4455 $x3930 $x3414 (= ?x2590 (+ 3 ?x4396)) (= (sc_t 3) (sc_t 2)) $x2467 $x10770 $x10519 $x10579 $x6103 $x2041 (= ?x9027 (+ 3 ?x2590)) (= (sc_t 4) (sc_t 3)) $x10458 $x4969 $x10160 $x3583 (= ?x919 (bvadd (_ bv63 6) (sc_t 4))) $x8456 $x8676 $x3652 $x73 $x3685 $x58 $x6131 $x10048 (not (and $x929 $x6339 $x889 $x634)))))))))))))))))))))))))))))))))))))))))))))))))))))))))))))))))))))))))))))))))))))))))))))))))))))))
 )
(check-sat)
(get-proof)
